p cnf 999 178
6 11 16 21 26 0
6 7 8 9 10 0
7 12 17 22 27 0
11 12 13 14 15 0
8 13 18 23 28 0
16 17 18 19 20 0
9 14 19 24 29 0
21 22 23 24 25 0
10 15 20 25 30 0
26 27 28 29 30 0
-6 -11 0
-7 -12 0
-8 -13 0
-9 -14 0
-10 -15 0
-6 -16 0
-7 -17 0
-8 -18 0
-9 -19 0
-10 -20 0
-6 -21 0
-7 -22 0
-8 -23 0
-9 -24 0
-10 -25 0
-6 -26 0
-7 -27 0
-8 -28 0
-9 -29 0
-10 -30 0
-11 -16 0
-12 -17 0
-13 -18 0
-14 -19 0
-15 -20 0
-11 -21 0
-12 -22 0
-13 -23 0
-14 -24 0
-15 -25 0
-11 -26 0
-12 -27 0
-13 -28 0
-14 -29 0
-15 -30 0
-16 -21 0
-17 -22 0
-18 -23 0
-19 -24 0
-20 -25 0
-16 -26 0
-17 -27 0
-18 -28 0
-19 -29 0
-20 -30 0
-21 -26 0
-22 -27 0
-23 -28 0
-24 -29 0
-25 -30 0
-6 -7 0
-11 -12 0
-16 -17 0
-21 -22 0
-26 -27 0
-6 -8 0
-11 -13 0
-16 -18 0
-21 -23 0
-26 -28 0
-6 -9 0
-11 -14 0
-16 -19 0
-21 -24 0
-26 -29 0
-6 -10 0
-11 -15 0
-16 -20 0
-21 -25 0
-26 -30 0
-7 -8 0
-12 -13 0
-17 -18 0
-22 -23 0
-27 -28 0
-7 -9 0
-12 -14 0
-17 -19 0
-22 -24 0
-27 -29 0
-7 -10 0
-12 -15 0
-17 -20 0
-22 -25 0
-27 -30 0
-8 -9 0
-13 -14 0
-18 -19 0
-23 -24 0
-28 -29 0
-8 -10 0
-13 -15 0
-18 -20 0
-23 -25 0
-28 -30 0
-9 -10 0
-14 -15 0
-19 -20 0
-24 -25 0
-29 -30 0
-6 -11 0
-11 -16 0
-16 -21 0
-21 -26 0
-6 -13 0
-11 -18 0
-16 -23 0
-21 -28 0
-6 -14 0
-11 -19 0
-16 -24 0
-21 -29 0
-6 -15 0
-11 -20 0
-16 -25 0
-21 -30 0
-7 -12 0
-12 -17 0
-17 -22 0
-22 -27 0
-7 -14 0
-12 -19 0
-17 -24 0
-22 -29 0
-7 -15 0
-12 -20 0
-17 -25 0
-22 -30 0
-8 -11 0
-13 -16 0
-18 -21 0
-23 -26 0
-8 -13 0
-13 -18 0
-18 -23 0
-23 -28 0
-8 -14 0
-13 -19 0
-18 -24 0
-23 -29 0
-9 -11 0
-14 -16 0
-19 -21 0
-24 -26 0
-9 -12 0
-14 -17 0
-19 -22 0
-24 -27 0
-9 -13 0
-14 -18 0
-19 -23 0
-24 -28 0
-9 -14 0
-14 -19 0
-19 -24 0
-24 -29 0
-10 -11 0
-15 -16 0
-20 -21 0
-25 -26 0
-10 -12 0
-15 -17 0
-20 -22 0
-25 -27 0
-10 -15 0
-15 -20 0
-20 -25 0
-25 -30 0
